% Logging successfully configured
%%%mzn-stat: initTime=0.062207628
%%%mzn-stat: objective=735
%%%mzn-stat: nodes=3425
%%%mzn-stat: restarts=0
%%%mzn-stat: peakDepth=3344
%%%mzn-stat: solveTime=0.277881533
%%%mzn-stat: variables=4276
%%%mzn-stat: propagators=3790
%%%mzn-stat: failures=57
%%%mzn-stat: propagations=14714
%%%mzn-stat: nogoods=57
%%%mzn-stat: numAtomicConstraintsPropagated=0
%%%mzn-stat: circuitNumber1PropagationsTotal=549
%%%mzn-stat: circuitNumber1CircuitConflicts=49
%%%mzn-stat: circuitNumber1AlldiffConflicts=0
%%%mzn-stat: circuitNumber1TotalFixedEdgesAtConflict=7056
%%%mzn-stat: circuitNumber1NumberOfConflicts=49
%%%mzn-stat: circuitNumber1GacPrunings=2055
%%%mzn-stat: circuitNumber1PropagationsThatGacPruned=280
%%%mzn-stat: circuitNumber1TotalPruningHallSetSize=3409
%%%mzn-stat: circuitNumber1NumberOfPruningExplanations=2055
%%%mzn-stat: circuitNumber1MaxPruningHallSetSize=26
%%%mzn-stat: circuitNumber1TotalSccSizeAtPruning=690
%%%mzn-stat: circuitNumber1NumberOfSccPruningCalls=280
%%%mzn-stat: circuitNumber1TotalVarsInvolvedInPruning=1981
%%%mzn-stat: circuitNumber1MaxValuesPrunedFromSingleVar=9
%%%mzn-stat: circuitNumber1HallCircuitChecks=1053
%%%mzn-stat: circuitNumber1HallCircuitPrunings=5
%%%mzn-stat: circuitNumber1CircuitPreventPrunings=171
%%%mzn-stat: AverageConflictSize=123.24561403508773
%%%mzn-stat: NumUnitNogoodsLearned=0
%%%mzn-stat: AverageLearnedNogoodLength=115.80701754385964
%%%mzn-stat: AverageBacktrackAmount=0
%%%mzn-stat: AverageLbd=109.82456140350877
%%%mzn-stat: 2AutonomousSearchNumBackupCalled=3217
%%%mzn-stat: 2AutonomousSearchNumPredicatesRemoved=0
%%%mzn-stat: 2AutonomousSearchNumCalls=3218
%%%mzn-stat: 2AutonomousSearchNumPredicatesAdded=808
%%%mzn-stat: 2AutonomousSearchAverageSizeOfHeap=0.25108763206960844
%%%mzn-stat: 2AutonomousSearchNumAssignedPredicatesEncountered=808
%%%mzn-stat-end
maxleg = 735;
succ = array1d(1..150,[3, 4, 10, 8, 7, 27, 11, 9, 19, 17, 13, 15, 18, 38, 14, 21, 29, 16, 25, 5, 22, 23, 12, 2, 1, 32, 35, 24, 48, 31, 28, 42, 34, 50, 20, 6, 33, 52, 60, 43, 26, 45, 46, 37, 51, 44, 36, 49, 55, 54, 30, 57, 41, 61, 58, 53, 76, 77, 40, 67, 63, 39, 68, 70, 56, 59, 86, 90, 65, 69, 75, 80, 47, 82, 112, 66, 62, 64, 81, 95, 87, 73, 84, 89, 71, 83, 92, 72, 91, 96, 79, 98, 105, 88, 99, 94, 74, 104, 101, 78, 106, 100, 85, 128, 114, 110, 111, 117, 103, 102, 119, 129, 97, 141, 130, 109, 123, 137, 121, 113, 127, 120, 126, 116, 118, 134, 131, 142, 136, 122, 133, 108, 146, 139, 125, 145, 143, 132, 149, 93, 135, 107, 124, 148, 150, 144, 115, 140, 147, 138]);
% time elapsed: 0.91 s
----------
%%%mzn-stat: initTime=0.062207628
%%%mzn-stat: objective=377
%%%mzn-stat: nodes=6921
%%%mzn-stat: restarts=0
%%%mzn-stat: peakDepth=3366
%%%mzn-stat: solveTime=0.472629708
%%%mzn-stat: variables=4276
%%%mzn-stat: propagators=3790
%%%mzn-stat: failures=111
%%%mzn-stat: propagations=22772
%%%mzn-stat: nogoods=111
%%%mzn-stat: numAtomicConstraintsPropagated=0
%%%mzn-stat: circuitNumber1PropagationsTotal=1255
%%%mzn-stat: circuitNumber1CircuitConflicts=90
%%%mzn-stat: circuitNumber1AlldiffConflicts=0
%%%mzn-stat: circuitNumber1TotalFixedEdgesAtConflict=12743
%%%mzn-stat: circuitNumber1NumberOfConflicts=90
%%%mzn-stat: circuitNumber1GacPrunings=4742
%%%mzn-stat: circuitNumber1PropagationsThatGacPruned=646
%%%mzn-stat: circuitNumber1TotalPruningHallSetSize=8691
%%%mzn-stat: circuitNumber1NumberOfPruningExplanations=4742
%%%mzn-stat: circuitNumber1MaxPruningHallSetSize=27
%%%mzn-stat: circuitNumber1TotalSccSizeAtPruning=2325
%%%mzn-stat: circuitNumber1NumberOfSccPruningCalls=646
%%%mzn-stat: circuitNumber1TotalVarsInvolvedInPruning=4536
%%%mzn-stat: circuitNumber1MaxValuesPrunedFromSingleVar=9
%%%mzn-stat: circuitNumber1HallCircuitChecks=2690
%%%mzn-stat: circuitNumber1HallCircuitPrunings=55
%%%mzn-stat: circuitNumber1CircuitPreventPrunings=378
%%%mzn-stat: AverageConflictSize=82.27027027027027
%%%mzn-stat: NumUnitNogoodsLearned=0
%%%mzn-stat: AverageLearnedNogoodLength=92.76576576576576
%%%mzn-stat: AverageBacktrackAmount=0
%%%mzn-stat: AverageLbd=82.3963963963964
%%%mzn-stat: 2AutonomousSearchNumBackupCalled=6453
%%%mzn-stat: 2AutonomousSearchNumPredicatesRemoved=0
%%%mzn-stat: 2AutonomousSearchNumCalls=6455
%%%mzn-stat: 2AutonomousSearchNumPredicatesAdded=1882
%%%mzn-stat: 2AutonomousSearchAverageSizeOfHeap=0.32099147947327655
%%%mzn-stat: 2AutonomousSearchNumAssignedPredicatesEncountered=2072
%%%mzn-stat-end
maxleg = 377;
succ = array1d(1..150,[3, 4, 10, 8, 7, 27, 11, 9, 19, 17, 13, 15, 18, 38, 14, 21, 29, 16, 25, 5, 22, 23, 12, 2, 1, 32, 35, 24, 48, 31, 28, 42, 34, 50, 20, 6, 33, 52, 60, 43, 26, 45, 46, 37, 51, 44, 36, 49, 55, 54, 30, 57, 41, 61, 58, 53, 76, 77, 40, 67, 63, 39, 68, 70, 56, 59, 86, 90, 65, 69, 75, 80, 47, 82, 112, 66, 62, 64, 81, 95, 87, 73, 84, 89, 71, 83, 92, 72, 91, 96, 79, 98, 105, 118, 94, 88, 74, 104, 101, 78, 106, 100, 85, 128, 114, 119, 99, 117, 103, 102, 107, 129, 97, 141, 110, 120, 116, 125, 121, 122, 127, 124, 126, 143, 135, 130, 131, 142, 136, 115, 133, 108, 146, 113, 109, 145, 132, 137, 134, 93, 147, 111, 123, 148, 150, 144, 149, 140, 139, 138]);
% time elapsed: 1.11 s
----------
%%%mzn-stat: initTime=0.062207628
%%%mzn-stat: objective=340
%%%mzn-stat: nodes=10237
%%%mzn-stat: restarts=0
%%%mzn-stat: peakDepth=3366
%%%mzn-stat: solveTime=0.606004485
%%%mzn-stat: variables=4276
%%%mzn-stat: propagators=3790
%%%mzn-stat: failures=125
%%%mzn-stat: propagations=29575
%%%mzn-stat: nogoods=125
%%%mzn-stat: numAtomicConstraintsPropagated=0
%%%mzn-stat: circuitNumber1PropagationsTotal=1644
%%%mzn-stat: circuitNumber1CircuitConflicts=104
%%%mzn-stat: circuitNumber1AlldiffConflicts=0
%%%mzn-stat: circuitNumber1TotalFixedEdgesAtConflict=14686
%%%mzn-stat: circuitNumber1NumberOfConflicts=104
%%%mzn-stat: circuitNumber1GacPrunings=6685
%%%mzn-stat: circuitNumber1PropagationsThatGacPruned=852
%%%mzn-stat: circuitNumber1TotalPruningHallSetSize=12206
%%%mzn-stat: circuitNumber1NumberOfPruningExplanations=6685
%%%mzn-stat: circuitNumber1MaxPruningHallSetSize=27
%%%mzn-stat: circuitNumber1TotalSccSizeAtPruning=3198
%%%mzn-stat: circuitNumber1NumberOfSccPruningCalls=852
%%%mzn-stat: circuitNumber1TotalVarsInvolvedInPruning=6417
%%%mzn-stat: circuitNumber1MaxValuesPrunedFromSingleVar=9
%%%mzn-stat: circuitNumber1HallCircuitChecks=3490
%%%mzn-stat: circuitNumber1HallCircuitPrunings=92
%%%mzn-stat: circuitNumber1CircuitPreventPrunings=493
%%%mzn-stat: AverageConflictSize=80.736
%%%mzn-stat: NumUnitNogoodsLearned=0
%%%mzn-stat: AverageLearnedNogoodLength=98.096
%%%mzn-stat: AverageBacktrackAmount=0
%%%mzn-stat: AverageLbd=86.448
%%%mzn-stat: 2AutonomousSearchNumBackupCalled=9627
%%%mzn-stat: 2AutonomousSearchNumPredicatesRemoved=0
%%%mzn-stat: 2AutonomousSearchNumCalls=9630
%%%mzn-stat: 2AutonomousSearchNumPredicatesAdded=2444
%%%mzn-stat: 2AutonomousSearchAverageSizeOfHeap=0.3467289719626168
%%%mzn-stat: 2AutonomousSearchNumAssignedPredicatesEncountered=3339
%%%mzn-stat-end
maxleg = 340;
succ = array1d(1..150,[3, 4, 10, 8, 7, 27, 11, 9, 19, 17, 13, 15, 18, 38, 14, 21, 29, 16, 25, 5, 22, 23, 12, 2, 1, 32, 35, 24, 48, 31, 28, 42, 34, 50, 20, 6, 33, 52, 60, 43, 26, 45, 46, 37, 51, 44, 36, 49, 55, 54, 30, 57, 41, 61, 58, 53, 76, 77, 40, 67, 63, 39, 68, 70, 56, 59, 86, 90, 65, 69, 75, 80, 47, 82, 112, 66, 62, 64, 81, 95, 87, 73, 84, 89, 71, 83, 92, 72, 91, 96, 79, 98, 114, 118, 94, 88, 74, 104, 101, 78, 106, 100, 85, 128, 140, 119, 99, 117, 103, 102, 107, 129, 97, 141, 110, 120, 116, 125, 121, 122, 127, 124, 126, 143, 135, 130, 131, 142, 136, 115, 133, 108, 146, 113, 109, 145, 132, 137, 134, 93, 147, 111, 123, 148, 150, 144, 149, 105, 139, 138]);
% time elapsed: 1.24 s
----------
%%%mzn-stat: initTime=0.062207628
%%%mzn-stat: objective=335
%%%mzn-stat: nodes=13632
%%%mzn-stat: restarts=0
%%%mzn-stat: peakDepth=3366
%%%mzn-stat: solveTime=0.786062535
%%%mzn-stat: variables=4276
%%%mzn-stat: propagators=3790
%%%mzn-stat: failures=154
%%%mzn-stat: propagations=37071
%%%mzn-stat: nogoods=154
%%%mzn-stat: numAtomicConstraintsPropagated=0
%%%mzn-stat: circuitNumber1PropagationsTotal=2175
%%%mzn-stat: circuitNumber1CircuitConflicts=133
%%%mzn-stat: circuitNumber1AlldiffConflicts=0
%%%mzn-stat: circuitNumber1TotalFixedEdgesAtConflict=18823
%%%mzn-stat: circuitNumber1NumberOfConflicts=133
%%%mzn-stat: circuitNumber1GacPrunings=8771
%%%mzn-stat: circuitNumber1PropagationsThatGacPruned=1130
%%%mzn-stat: circuitNumber1TotalPruningHallSetSize=15908
%%%mzn-stat: circuitNumber1NumberOfPruningExplanations=8771
%%%mzn-stat: circuitNumber1MaxPruningHallSetSize=27
%%%mzn-stat: circuitNumber1TotalSccSizeAtPruning=4210
%%%mzn-stat: circuitNumber1NumberOfSccPruningCalls=1130
%%%mzn-stat: circuitNumber1TotalVarsInvolvedInPruning=8441
%%%mzn-stat: circuitNumber1MaxValuesPrunedFromSingleVar=9
%%%mzn-stat: circuitNumber1HallCircuitChecks=4639
%%%mzn-stat: circuitNumber1HallCircuitPrunings=133
%%%mzn-stat: circuitNumber1CircuitPreventPrunings=660
%%%mzn-stat: AverageConflictSize=78.94155844155844
%%%mzn-stat: NumUnitNogoodsLearned=0
%%%mzn-stat: AverageLearnedNogoodLength=99.85714285714286
%%%mzn-stat: AverageBacktrackAmount=0
%%%mzn-stat: AverageLbd=87.12987012987013
%%%mzn-stat: 2AutonomousSearchNumBackupCalled=12835
%%%mzn-stat: 2AutonomousSearchNumPredicatesRemoved=0
%%%mzn-stat: 2AutonomousSearchNumCalls=12839
%%%mzn-stat: 2AutonomousSearchNumPredicatesAdded=3095
%%%mzn-stat: 2AutonomousSearchAverageSizeOfHeap=0.35929589531895006
%%%mzn-stat: 2AutonomousSearchNumAssignedPredicatesEncountered=4613
%%%mzn-stat-end
maxleg = 335;
succ = array1d(1..150,[3, 4, 10, 8, 7, 27, 11, 9, 19, 17, 13, 15, 18, 38, 14, 26, 29, 16, 25, 5, 22, 23, 12, 2, 1, 21, 35, 24, 48, 31, 28, 42, 34, 50, 20, 6, 33, 52, 60, 43, 30, 45, 46, 37, 51, 44, 36, 49, 55, 54, 41, 57, 32, 61, 58, 53, 76, 77, 40, 67, 63, 39, 68, 70, 56, 59, 86, 90, 65, 69, 75, 80, 47, 82, 112, 66, 62, 64, 81, 95, 87, 73, 84, 89, 71, 83, 92, 72, 91, 96, 79, 98, 114, 118, 94, 88, 74, 104, 101, 78, 106, 100, 85, 128, 140, 119, 99, 117, 103, 102, 107, 129, 97, 141, 110, 120, 116, 125, 121, 122, 127, 124, 126, 143, 135, 130, 131, 142, 136, 115, 133, 108, 146, 113, 109, 145, 132, 137, 134, 93, 147, 111, 123, 148, 150, 144, 149, 105, 139, 138]);
% time elapsed: 1.43 s
----------
%%%mzn-stat: initTime=0.062207628
%%%mzn-stat: objective=321
%%%mzn-stat: nodes=17027
%%%mzn-stat: restarts=0
%%%mzn-stat: peakDepth=3366
%%%mzn-stat: solveTime=0.952535434
%%%mzn-stat: variables=4276
%%%mzn-stat: propagators=3790
%%%mzn-stat: failures=183
%%%mzn-stat: propagations=44572
%%%mzn-stat: nogoods=183
%%%mzn-stat: numAtomicConstraintsPropagated=0
%%%mzn-stat: circuitNumber1PropagationsTotal=2706
%%%mzn-stat: circuitNumber1CircuitConflicts=162
%%%mzn-stat: circuitNumber1AlldiffConflicts=0
%%%mzn-stat: circuitNumber1TotalFixedEdgesAtConflict=22960
%%%mzn-stat: circuitNumber1NumberOfConflicts=162
%%%mzn-stat: circuitNumber1GacPrunings=10856
%%%mzn-stat: circuitNumber1PropagationsThatGacPruned=1408
%%%mzn-stat: circuitNumber1TotalPruningHallSetSize=19609
%%%mzn-stat: circuitNumber1NumberOfPruningExplanations=10856
%%%mzn-stat: circuitNumber1MaxPruningHallSetSize=27
%%%mzn-stat: circuitNumber1TotalSccSizeAtPruning=5222
%%%mzn-stat: circuitNumber1NumberOfSccPruningCalls=1408
%%%mzn-stat: circuitNumber1TotalVarsInvolvedInPruning=10464
%%%mzn-stat: circuitNumber1MaxValuesPrunedFromSingleVar=9
%%%mzn-stat: circuitNumber1HallCircuitChecks=5788
%%%mzn-stat: circuitNumber1HallCircuitPrunings=174
%%%mzn-stat: circuitNumber1CircuitPreventPrunings=825
%%%mzn-stat: AverageConflictSize=77.71584699453553
%%%mzn-stat: NumUnitNogoodsLearned=0
%%%mzn-stat: AverageLearnedNogoodLength=101.06010928961749
%%%mzn-stat: AverageBacktrackAmount=0
%%%mzn-stat: AverageLbd=87.59562841530055
%%%mzn-stat: 2AutonomousSearchNumBackupCalled=16043
%%%mzn-stat: 2AutonomousSearchNumPredicatesRemoved=0
%%%mzn-stat: 2AutonomousSearchNumCalls=16048
%%%mzn-stat: 2AutonomousSearchNumPredicatesAdded=3746
%%%mzn-stat: 2AutonomousSearchAverageSizeOfHeap=0.36733549351944167
%%%mzn-stat: 2AutonomousSearchNumAssignedPredicatesEncountered=5895
%%%mzn-stat-end
maxleg = 321;
succ = array1d(1..150,[3, 4, 10, 8, 11, 27, 16, 9, 19, 17, 7, 15, 5, 38, 14, 18, 29, 26, 25, 13, 22, 23, 12, 2, 1, 21, 35, 24, 48, 31, 28, 42, 34, 50, 20, 6, 33, 52, 60, 43, 30, 45, 46, 37, 51, 44, 36, 49, 55, 54, 41, 57, 32, 61, 58, 53, 76, 77, 40, 67, 63, 39, 68, 70, 56, 59, 86, 90, 65, 69, 75, 80, 47, 82, 112, 66, 62, 64, 81, 95, 87, 73, 84, 89, 71, 83, 92, 72, 91, 96, 79, 98, 114, 118, 94, 88, 74, 104, 101, 78, 106, 100, 85, 128, 140, 119, 99, 117, 103, 102, 107, 129, 97, 141, 110, 120, 116, 125, 121, 122, 127, 124, 126, 143, 135, 130, 131, 142, 136, 115, 133, 108, 146, 113, 109, 145, 132, 137, 134, 93, 147, 111, 123, 148, 150, 144, 149, 105, 139, 138]);
% time elapsed: 1.61 s
----------
%%%mzn-stat: initTime=0.062207628
%%%mzn-stat: objective=309
%%%mzn-stat: nodes=20300
%%%mzn-stat: restarts=0
%%%mzn-stat: peakDepth=3366
%%%mzn-stat: solveTime=1.022803645
%%%mzn-stat: variables=4276
%%%mzn-stat: propagators=3790
%%%mzn-stat: failures=183
%%%mzn-stat: propagations=50676
%%%mzn-stat: nogoods=183
%%%mzn-stat: numAtomicConstraintsPropagated=0
%%%mzn-stat: circuitNumber1PropagationsTotal=2969
%%%mzn-stat: circuitNumber1CircuitConflicts=162
%%%mzn-stat: circuitNumber1AlldiffConflicts=0
%%%mzn-stat: circuitNumber1TotalFixedEdgesAtConflict=22960
%%%mzn-stat: circuitNumber1NumberOfConflicts=162
%%%mzn-stat: circuitNumber1GacPrunings=12510
%%%mzn-stat: circuitNumber1PropagationsThatGacPruned=1541
%%%mzn-stat: circuitNumber1TotalPruningHallSetSize=22378
%%%mzn-stat: circuitNumber1NumberOfPruningExplanations=12510
%%%mzn-stat: circuitNumber1MaxPruningHallSetSize=27
%%%mzn-stat: circuitNumber1TotalSccSizeAtPruning=5492
%%%mzn-stat: circuitNumber1NumberOfSccPruningCalls=1541
%%%mzn-stat: circuitNumber1TotalVarsInvolvedInPruning=12083
%%%mzn-stat: circuitNumber1MaxValuesPrunedFromSingleVar=9
%%%mzn-stat: circuitNumber1HallCircuitChecks=6217
%%%mzn-stat: circuitNumber1HallCircuitPrunings=179
%%%mzn-stat: circuitNumber1CircuitPreventPrunings=880
%%%mzn-stat: AverageConflictSize=77.71584699453553
%%%mzn-stat: NumUnitNogoodsLearned=0
%%%mzn-stat: AverageLearnedNogoodLength=101.06010928961749
%%%mzn-stat: AverageBacktrackAmount=0
%%%mzn-stat: AverageLbd=87.59562841530055
%%%mzn-stat: 2AutonomousSearchNumBackupCalled=19190
%%%mzn-stat: 2AutonomousSearchNumPredicatesRemoved=0
%%%mzn-stat: 2AutonomousSearchNumCalls=19196
%%%mzn-stat: 2AutonomousSearchNumPredicatesAdded=3746
%%%mzn-stat: 2AutonomousSearchAverageSizeOfHeap=0.3738799749947906
%%%mzn-stat: 2AutonomousSearchNumAssignedPredicatesEncountered=7177
%%%mzn-stat-end
maxleg = 309;
succ = array1d(1..150,[3, 4, 10, 8, 11, 27, 16, 9, 19, 17, 7, 15, 5, 38, 14, 18, 29, 26, 25, 13, 22, 23, 12, 2, 1, 21, 35, 24, 48, 31, 28, 42, 34, 50, 20, 6, 33, 52, 60, 43, 30, 45, 46, 37, 51, 44, 36, 49, 55, 54, 41, 57, 32, 61, 58, 53, 76, 77, 40, 67, 63, 39, 68, 70, 56, 59, 86, 90, 65, 69, 75, 80, 47, 82, 112, 66, 62, 64, 81, 95, 87, 73, 84, 89, 71, 83, 92, 72, 91, 96, 79, 98, 114, 118, 94, 88, 74, 104, 101, 78, 106, 100, 85, 128, 140, 119, 99, 117, 103, 102, 107, 129, 97, 141, 110, 120, 116, 125, 121, 122, 127, 124, 126, 143, 135, 130, 131, 142, 136, 115, 133, 108, 146, 139, 109, 145, 132, 137, 113, 93, 147, 111, 123, 148, 150, 144, 149, 105, 134, 138]);
% time elapsed: 1.69 s
----------
%%%mzn-stat: initTime=0.062207628
%%%mzn-stat: objective=301
%%%mzn-stat: nodes=23553
%%%mzn-stat: restarts=0
%%%mzn-stat: peakDepth=3366
%%%mzn-stat: solveTime=1.093462247
%%%mzn-stat: variables=4276
%%%mzn-stat: propagators=3790
%%%mzn-stat: failures=184
%%%mzn-stat: propagations=56837
%%%mzn-stat: nogoods=184
%%%mzn-stat: numAtomicConstraintsPropagated=0
%%%mzn-stat: circuitNumber1PropagationsTotal=3242
%%%mzn-stat: circuitNumber1CircuitConflicts=162
%%%mzn-stat: circuitNumber1AlldiffConflicts=0
%%%mzn-stat: circuitNumber1TotalFixedEdgesAtConflict=22960
%%%mzn-stat: circuitNumber1NumberOfConflicts=162
%%%mzn-stat: circuitNumber1GacPrunings=14172
%%%mzn-stat: circuitNumber1PropagationsThatGacPruned=1680
%%%mzn-stat: circuitNumber1TotalPruningHallSetSize=25165
%%%mzn-stat: circuitNumber1NumberOfPruningExplanations=14172
%%%mzn-stat: circuitNumber1MaxPruningHallSetSize=27
%%%mzn-stat: circuitNumber1TotalSccSizeAtPruning=5788
%%%mzn-stat: circuitNumber1NumberOfSccPruningCalls=1680
%%%mzn-stat: circuitNumber1TotalVarsInvolvedInPruning=13704
%%%mzn-stat: circuitNumber1MaxValuesPrunedFromSingleVar=9
%%%mzn-stat: circuitNumber1HallCircuitChecks=6703
%%%mzn-stat: circuitNumber1HallCircuitPrunings=186
%%%mzn-stat: circuitNumber1CircuitPreventPrunings=938
%%%mzn-stat: AverageConflictSize=77.35326086956522
%%%mzn-stat: NumUnitNogoodsLearned=0
%%%mzn-stat: AverageLearnedNogoodLength=100.6086956521739
%%%mzn-stat: AverageBacktrackAmount=0
%%%mzn-stat: AverageLbd=87.17391304347827
%%%mzn-stat: 2AutonomousSearchNumBackupCalled=22314
%%%mzn-stat: 2AutonomousSearchNumPredicatesRemoved=0
%%%mzn-stat: 2AutonomousSearchNumCalls=22321
%%%mzn-stat: 2AutonomousSearchNumPredicatesAdded=3830
%%%mzn-stat: 2AutonomousSearchAverageSizeOfHeap=0.3821961381658528
%%%mzn-stat: 2AutonomousSearchNumAssignedPredicatesEncountered=8531
%%%mzn-stat-end
maxleg = 301;
succ = array1d(1..150,[3, 4, 10, 8, 11, 27, 16, 9, 19, 17, 7, 15, 5, 38, 14, 18, 29, 26, 25, 13, 22, 23, 12, 2, 1, 21, 35, 24, 48, 31, 28, 42, 34, 50, 20, 6, 33, 52, 60, 43, 30, 45, 46, 37, 51, 44, 36, 49, 55, 54, 41, 57, 32, 61, 58, 53, 76, 77, 40, 67, 63, 39, 68, 70, 56, 59, 86, 90, 65, 69, 75, 80, 47, 82, 112, 66, 62, 64, 81, 95, 87, 73, 84, 89, 71, 83, 92, 72, 91, 96, 79, 98, 114, 118, 94, 88, 74, 104, 101, 78, 106, 100, 85, 128, 140, 119, 99, 117, 103, 102, 107, 129, 97, 141, 110, 120, 116, 125, 121, 122, 127, 124, 126, 143, 135, 130, 142, 131, 136, 115, 111, 108, 146, 139, 109, 145, 132, 137, 113, 93, 147, 133, 123, 148, 150, 144, 149, 105, 134, 138]);
% time elapsed: 1.78 s
----------
%%%mzn-stat: initTime=0.062207628
%%%mzn-stat: objective=301
%%%mzn-stat: nodes=378508
%%%mzn-stat: restarts=0
%%%mzn-stat: peakDepth=3366
%%%mzn-stat: solveTime=1799.382614611
%%%mzn-stat: variables=4276
%%%mzn-stat: propagators=3790
%%%mzn-stat: failures=354996
%%%mzn-stat: propagations=9402294
%%%mzn-stat: nogoods=354996
%%%mzn-stat: numAtomicConstraintsPropagated=0
%%%mzn-stat: circuitNumber1PropagationsTotal=1551201
%%%mzn-stat: circuitNumber1CircuitConflicts=117763
%%%mzn-stat: circuitNumber1AlldiffConflicts=0
%%%mzn-stat: circuitNumber1TotalFixedEdgesAtConflict=17310279
%%%mzn-stat: circuitNumber1NumberOfConflicts=117763
%%%mzn-stat: circuitNumber1GacPrunings=2364769
%%%mzn-stat: circuitNumber1PropagationsThatGacPruned=931056
%%%mzn-stat: circuitNumber1TotalPruningHallSetSize=3727737
%%%mzn-stat: circuitNumber1NumberOfPruningExplanations=2364769
%%%mzn-stat: circuitNumber1MaxPruningHallSetSize=44
%%%mzn-stat: circuitNumber1TotalSccSizeAtPruning=2589803
%%%mzn-stat: circuitNumber1NumberOfSccPruningCalls=931056
%%%mzn-stat: circuitNumber1TotalVarsInvolvedInPruning=2150926
%%%mzn-stat: circuitNumber1MaxValuesPrunedFromSingleVar=9
%%%mzn-stat: circuitNumber1HallCircuitChecks=1894725
%%%mzn-stat: circuitNumber1HallCircuitPrunings=38317
%%%mzn-stat: circuitNumber1CircuitPreventPrunings=938051
%%%mzn-stat: AverageConflictSize=146.29276104519488
%%%mzn-stat: NumUnitNogoodsLearned=0
%%%mzn-stat: AverageLearnedNogoodLength=145.6700638880438
%%%mzn-stat: AverageBacktrackAmount=0
%%%mzn-stat: AverageLbd=123.35236453368489
%%%mzn-stat: 2AutonomousSearchNumBackupCalled=22314
%%%mzn-stat: 2AutonomousSearchNumPredicatesRemoved=0
%%%mzn-stat: 2AutonomousSearchNumCalls=22321
%%%mzn-stat: 2AutonomousSearchNumPredicatesAdded=5108
%%%mzn-stat: 2AutonomousSearchAverageSizeOfHeap=0.3821961381658528
%%%mzn-stat: 2AutonomousSearchNumAssignedPredicatesEncountered=8531
%%%mzn-stat-end
